(set-logic QF_LRA)
(declare-fun T1 () Real )
(declare-fun T2 () Real )
(declare-fun T3 () Real )
(declare-fun T4 () Real )
(declare-fun T5 () Real )
(declare-fun T6 () Real )
(declare-fun T7 () Real )
(declare-fun T8 () Real )
(declare-fun Z () Real )
(assert ( and 
(or ( <= ( + T1 93 ) T2 ) ( <= ( + T2 20 ) T1 ) )
(or ( <= ( + T1 103 )  ( + T2 20 ) ) ( <= ( + T2 106 )( + T1 93 ) ) )
(or ( <= ( + T1 119 )  ( + T2 106 ) ) ( <= ( + T2 166 )( + T1 103 ) ) )
(or ( <= ( + T1 168 )  ( + T2 166 ) ) ( <= ( + T2 231 )( + T1 119 ) ) )
(or ( <= ( + T1 199 )  ( + T2 231 ) ) ( <= ( + T2 257 )( + T1 168 ) ) )
(or ( <= ( + T1 273 )  ( + T2 257 ) ) ( <= ( + T2 349 )( + T1 199 ) ) )
(or ( <= ( + T1 93 ) T3 ) ( <= ( + T3 24 ) T1 ) )
(or ( <= ( + T1 103 )  ( + T3 24 ) ) ( <= ( + T3 75 )( + T1 93 ) ) )
(or ( <= ( + T1 119 )  ( + T3 75 ) ) ( <= ( + T3 129 )( + T1 103 ) ) )
(or ( <= ( + T1 168 )  ( + T3 129 ) ) ( <= ( + T3 176 )( + T1 119 ) ) )
(or ( <= ( + T1 199 )  ( + T3 176 ) ) ( <= ( + T3 208 )( + T1 168 ) ) )
(or ( <= ( + T1 273 )  ( + T3 208 ) ) ( <= ( + T3 297 )( + T1 199 ) ) )
(or ( <= ( + T1 93 ) T4 ) ( <= ( + T4 24 ) T1 ) )
(or ( <= ( + T1 103 )  ( + T4 24 ) ) ( <= ( + T4 94 )( + T1 93 ) ) )
(or ( <= ( + T1 119 )  ( + T4 94 ) ) ( <= ( + T4 145 )( + T1 103 ) ) )
(or ( <= ( + T1 168 )  ( + T4 145 ) ) ( <= ( + T4 234 )( + T1 119 ) ) )
(or ( <= ( + T1 199 )  ( + T4 234 ) ) ( <= ( + T4 330 )( + T1 168 ) ) )
(or ( <= ( + T1 273 )  ( + T4 330 ) ) ( <= ( + T4 342 )( + T1 199 ) ) )
(or ( <= ( + T1 93 ) T5 ) ( <= ( + T5 4 ) T1 ) )
(or ( <= ( + T1 103 )  ( + T5 4 ) ) ( <= ( + T5 89 )( + T1 93 ) ) )
(or ( <= ( + T1 119 )  ( + T5 89 ) ) ( <= ( + T5 117 )( + T1 103 ) ) )
(or ( <= ( + T1 168 )  ( + T5 117 ) ) ( <= ( + T5 195 )( + T1 119 ) ) )
(or ( <= ( + T1 199 )  ( + T5 195 ) ) ( <= ( + T5 206 )( + T1 168 ) ) )
(or ( <= ( + T1 273 )  ( + T5 206 ) ) ( <= ( + T5 230 )( + T1 199 ) ) )
(or ( <= ( + T1 93 ) T6 ) ( <= ( + T6 60 ) T1 ) )
(or ( <= ( + T1 103 )  ( + T6 60 ) ) ( <= ( + T6 116 )( + T1 93 ) ) )
(or ( <= ( + T1 119 )  ( + T6 116 ) ) ( <= ( + T6 202 )( + T1 103 ) ) )
(or ( <= ( + T1 168 )  ( + T6 202 ) ) ( <= ( + T6 229 )( + T1 119 ) ) )
(or ( <= ( + T1 199 )  ( + T6 229 ) ) ( <= ( + T6 233 )( + T1 168 ) ) )
(or ( <= ( + T1 273 )  ( + T6 233 ) ) ( <= ( + T6 249 )( + T1 199 ) ) )
(or ( <= ( + T1 93 ) T7 ) ( <= ( + T7 100 ) T1 ) )
(or ( <= ( + T1 103 )  ( + T7 100 ) ) ( <= ( + T7 175 )( + T1 93 ) ) )
(or ( <= ( + T1 119 )  ( + T7 175 ) ) ( <= ( + T7 176 )( + T1 103 ) ) )
(or ( <= ( + T1 168 )  ( + T7 176 ) ) ( <= ( + T7 235 )( + T1 119 ) ) )
(or ( <= ( + T1 199 )  ( + T7 235 ) ) ( <= ( + T7 274 )( + T1 168 ) ) )
(or ( <= ( + T1 273 )  ( + T7 274 ) ) ( <= ( + T7 352 )( + T1 199 ) ) )
(or ( <= ( + T1 93 ) T8 ) ( <= ( + T8 50 ) T1 ) )
(or ( <= ( + T1 103 )  ( + T8 50 ) ) ( <= ( + T8 64 )( + T1 93 ) ) )
(or ( <= ( + T1 119 )  ( + T8 64 ) ) ( <= ( + T8 93 )( + T1 103 ) ) )
(or ( <= ( + T1 168 )  ( + T8 93 ) ) ( <= ( + T8 148 )( + T1 119 ) ) )
(or ( <= ( + T1 199 )  ( + T8 148 ) ) ( <= ( + T8 161 )( + T1 168 ) ) )
(or ( <= ( + T1 273 )  ( + T8 161 ) ) ( <= ( + T8 173 )( + T1 199 ) ) )
(or ( <= ( + T2 20 ) T3 ) ( <= ( + T3 24 ) T2 ) )
(or ( <= ( + T2 106 )  ( + T3 24 ) ) ( <= ( + T3 75 )( + T2 20 ) ) )
(or ( <= ( + T2 166 )  ( + T3 75 ) ) ( <= ( + T3 129 )( + T2 106 ) ) )
(or ( <= ( + T2 231 )  ( + T3 129 ) ) ( <= ( + T3 176 )( + T2 166 ) ) )
(or ( <= ( + T2 257 )  ( + T3 176 ) ) ( <= ( + T3 208 )( + T2 231 ) ) )
(or ( <= ( + T2 349 )  ( + T3 208 ) ) ( <= ( + T3 297 )( + T2 257 ) ) )
(or ( <= ( + T2 20 ) T4 ) ( <= ( + T4 24 ) T2 ) )
(or ( <= ( + T2 106 )  ( + T4 24 ) ) ( <= ( + T4 94 )( + T2 20 ) ) )
(or ( <= ( + T2 166 )  ( + T4 94 ) ) ( <= ( + T4 145 )( + T2 106 ) ) )
(or ( <= ( + T2 231 )  ( + T4 145 ) ) ( <= ( + T4 234 )( + T2 166 ) ) )
(or ( <= ( + T2 257 )  ( + T4 234 ) ) ( <= ( + T4 330 )( + T2 231 ) ) )
(or ( <= ( + T2 349 )  ( + T4 330 ) ) ( <= ( + T4 342 )( + T2 257 ) ) )
(or ( <= ( + T2 20 ) T5 ) ( <= ( + T5 4 ) T2 ) )
(or ( <= ( + T2 106 )  ( + T5 4 ) ) ( <= ( + T5 89 )( + T2 20 ) ) )
(or ( <= ( + T2 166 )  ( + T5 89 ) ) ( <= ( + T5 117 )( + T2 106 ) ) )
(or ( <= ( + T2 231 )  ( + T5 117 ) ) ( <= ( + T5 195 )( + T2 166 ) ) )
(or ( <= ( + T2 257 )  ( + T5 195 ) ) ( <= ( + T5 206 )( + T2 231 ) ) )
(or ( <= ( + T2 349 )  ( + T5 206 ) ) ( <= ( + T5 230 )( + T2 257 ) ) )
(or ( <= ( + T2 20 ) T6 ) ( <= ( + T6 60 ) T2 ) )
(or ( <= ( + T2 106 )  ( + T6 60 ) ) ( <= ( + T6 116 )( + T2 20 ) ) )
(or ( <= ( + T2 166 )  ( + T6 116 ) ) ( <= ( + T6 202 )( + T2 106 ) ) )
(or ( <= ( + T2 231 )  ( + T6 202 ) ) ( <= ( + T6 229 )( + T2 166 ) ) )
(or ( <= ( + T2 257 )  ( + T6 229 ) ) ( <= ( + T6 233 )( + T2 231 ) ) )
(or ( <= ( + T2 349 )  ( + T6 233 ) ) ( <= ( + T6 249 )( + T2 257 ) ) )
(or ( <= ( + T2 20 ) T7 ) ( <= ( + T7 100 ) T2 ) )
(or ( <= ( + T2 106 )  ( + T7 100 ) ) ( <= ( + T7 175 )( + T2 20 ) ) )
(or ( <= ( + T2 166 )  ( + T7 175 ) ) ( <= ( + T7 176 )( + T2 106 ) ) )
(or ( <= ( + T2 231 )  ( + T7 176 ) ) ( <= ( + T7 235 )( + T2 166 ) ) )
(or ( <= ( + T2 257 )  ( + T7 235 ) ) ( <= ( + T7 274 )( + T2 231 ) ) )
(or ( <= ( + T2 349 )  ( + T7 274 ) ) ( <= ( + T7 352 )( + T2 257 ) ) )
(or ( <= ( + T2 20 ) T8 ) ( <= ( + T8 50 ) T2 ) )
(or ( <= ( + T2 106 )  ( + T8 50 ) ) ( <= ( + T8 64 )( + T2 20 ) ) )
(or ( <= ( + T2 166 )  ( + T8 64 ) ) ( <= ( + T8 93 )( + T2 106 ) ) )
(or ( <= ( + T2 231 )  ( + T8 93 ) ) ( <= ( + T8 148 )( + T2 166 ) ) )
(or ( <= ( + T2 257 )  ( + T8 148 ) ) ( <= ( + T8 161 )( + T2 231 ) ) )
(or ( <= ( + T2 349 )  ( + T8 161 ) ) ( <= ( + T8 173 )( + T2 257 ) ) )
(or ( <= ( + T3 24 ) T4 ) ( <= ( + T4 24 ) T3 ) )
(or ( <= ( + T3 75 )  ( + T4 24 ) ) ( <= ( + T4 94 )( + T3 24 ) ) )
(or ( <= ( + T3 129 )  ( + T4 94 ) ) ( <= ( + T4 145 )( + T3 75 ) ) )
(or ( <= ( + T3 176 )  ( + T4 145 ) ) ( <= ( + T4 234 )( + T3 129 ) ) )
(or ( <= ( + T3 208 )  ( + T4 234 ) ) ( <= ( + T4 330 )( + T3 176 ) ) )
(or ( <= ( + T3 297 )  ( + T4 330 ) ) ( <= ( + T4 342 )( + T3 208 ) ) )
(or ( <= ( + T3 24 ) T5 ) ( <= ( + T5 4 ) T3 ) )
(or ( <= ( + T3 75 )  ( + T5 4 ) ) ( <= ( + T5 89 )( + T3 24 ) ) )
(or ( <= ( + T3 129 )  ( + T5 89 ) ) ( <= ( + T5 117 )( + T3 75 ) ) )
(or ( <= ( + T3 176 )  ( + T5 117 ) ) ( <= ( + T5 195 )( + T3 129 ) ) )
(or ( <= ( + T3 208 )  ( + T5 195 ) ) ( <= ( + T5 206 )( + T3 176 ) ) )
(or ( <= ( + T3 297 )  ( + T5 206 ) ) ( <= ( + T5 230 )( + T3 208 ) ) )
(or ( <= ( + T3 24 ) T6 ) ( <= ( + T6 60 ) T3 ) )
(or ( <= ( + T3 75 )  ( + T6 60 ) ) ( <= ( + T6 116 )( + T3 24 ) ) )
(or ( <= ( + T3 129 )  ( + T6 116 ) ) ( <= ( + T6 202 )( + T3 75 ) ) )
(or ( <= ( + T3 176 )  ( + T6 202 ) ) ( <= ( + T6 229 )( + T3 129 ) ) )
(or ( <= ( + T3 208 )  ( + T6 229 ) ) ( <= ( + T6 233 )( + T3 176 ) ) )
(or ( <= ( + T3 297 )  ( + T6 233 ) ) ( <= ( + T6 249 )( + T3 208 ) ) )
(or ( <= ( + T3 24 ) T7 ) ( <= ( + T7 100 ) T3 ) )
(or ( <= ( + T3 75 )  ( + T7 100 ) ) ( <= ( + T7 175 )( + T3 24 ) ) )
(or ( <= ( + T3 129 )  ( + T7 175 ) ) ( <= ( + T7 176 )( + T3 75 ) ) )
(or ( <= ( + T3 176 )  ( + T7 176 ) ) ( <= ( + T7 235 )( + T3 129 ) ) )
(or ( <= ( + T3 208 )  ( + T7 235 ) ) ( <= ( + T7 274 )( + T3 176 ) ) )
(or ( <= ( + T3 297 )  ( + T7 274 ) ) ( <= ( + T7 352 )( + T3 208 ) ) )
(or ( <= ( + T3 24 ) T8 ) ( <= ( + T8 50 ) T3 ) )
(or ( <= ( + T3 75 )  ( + T8 50 ) ) ( <= ( + T8 64 )( + T3 24 ) ) )
(or ( <= ( + T3 129 )  ( + T8 64 ) ) ( <= ( + T8 93 )( + T3 75 ) ) )
(or ( <= ( + T3 176 )  ( + T8 93 ) ) ( <= ( + T8 148 )( + T3 129 ) ) )
(or ( <= ( + T3 208 )  ( + T8 148 ) ) ( <= ( + T8 161 )( + T3 176 ) ) )
(or ( <= ( + T3 297 )  ( + T8 161 ) ) ( <= ( + T8 173 )( + T3 208 ) ) )
(or ( <= ( + T4 24 ) T5 ) ( <= ( + T5 4 ) T4 ) )
(or ( <= ( + T4 94 )  ( + T5 4 ) ) ( <= ( + T5 89 )( + T4 24 ) ) )
(or ( <= ( + T4 145 )  ( + T5 89 ) ) ( <= ( + T5 117 )( + T4 94 ) ) )
(or ( <= ( + T4 234 )  ( + T5 117 ) ) ( <= ( + T5 195 )( + T4 145 ) ) )
(or ( <= ( + T4 330 )  ( + T5 195 ) ) ( <= ( + T5 206 )( + T4 234 ) ) )
(or ( <= ( + T4 342 )  ( + T5 206 ) ) ( <= ( + T5 230 )( + T4 330 ) ) )
(or ( <= ( + T4 24 ) T6 ) ( <= ( + T6 60 ) T4 ) )
(or ( <= ( + T4 94 )  ( + T6 60 ) ) ( <= ( + T6 116 )( + T4 24 ) ) )
(or ( <= ( + T4 145 )  ( + T6 116 ) ) ( <= ( + T6 202 )( + T4 94 ) ) )
(or ( <= ( + T4 234 )  ( + T6 202 ) ) ( <= ( + T6 229 )( + T4 145 ) ) )
(or ( <= ( + T4 330 )  ( + T6 229 ) ) ( <= ( + T6 233 )( + T4 234 ) ) )
(or ( <= ( + T4 342 )  ( + T6 233 ) ) ( <= ( + T6 249 )( + T4 330 ) ) )
(or ( <= ( + T4 24 ) T7 ) ( <= ( + T7 100 ) T4 ) )
(or ( <= ( + T4 94 )  ( + T7 100 ) ) ( <= ( + T7 175 )( + T4 24 ) ) )
(or ( <= ( + T4 145 )  ( + T7 175 ) ) ( <= ( + T7 176 )( + T4 94 ) ) )
(or ( <= ( + T4 234 )  ( + T7 176 ) ) ( <= ( + T7 235 )( + T4 145 ) ) )
(or ( <= ( + T4 330 )  ( + T7 235 ) ) ( <= ( + T7 274 )( + T4 234 ) ) )
(or ( <= ( + T4 342 )  ( + T7 274 ) ) ( <= ( + T7 352 )( + T4 330 ) ) )
(or ( <= ( + T4 24 ) T8 ) ( <= ( + T8 50 ) T4 ) )
(or ( <= ( + T4 94 )  ( + T8 50 ) ) ( <= ( + T8 64 )( + T4 24 ) ) )
(or ( <= ( + T4 145 )  ( + T8 64 ) ) ( <= ( + T8 93 )( + T4 94 ) ) )
(or ( <= ( + T4 234 )  ( + T8 93 ) ) ( <= ( + T8 148 )( + T4 145 ) ) )
(or ( <= ( + T4 330 )  ( + T8 148 ) ) ( <= ( + T8 161 )( + T4 234 ) ) )
(or ( <= ( + T4 342 )  ( + T8 161 ) ) ( <= ( + T8 173 )( + T4 330 ) ) )
(or ( <= ( + T5 4 ) T6 ) ( <= ( + T6 60 ) T5 ) )
(or ( <= ( + T5 89 )  ( + T6 60 ) ) ( <= ( + T6 116 )( + T5 4 ) ) )
(or ( <= ( + T5 117 )  ( + T6 116 ) ) ( <= ( + T6 202 )( + T5 89 ) ) )
(or ( <= ( + T5 195 )  ( + T6 202 ) ) ( <= ( + T6 229 )( + T5 117 ) ) )
(or ( <= ( + T5 206 )  ( + T6 229 ) ) ( <= ( + T6 233 )( + T5 195 ) ) )
(or ( <= ( + T5 230 )  ( + T6 233 ) ) ( <= ( + T6 249 )( + T5 206 ) ) )
(or ( <= ( + T5 4 ) T7 ) ( <= ( + T7 100 ) T5 ) )
(or ( <= ( + T5 89 )  ( + T7 100 ) ) ( <= ( + T7 175 )( + T5 4 ) ) )
(or ( <= ( + T5 117 )  ( + T7 175 ) ) ( <= ( + T7 176 )( + T5 89 ) ) )
(or ( <= ( + T5 195 )  ( + T7 176 ) ) ( <= ( + T7 235 )( + T5 117 ) ) )
(or ( <= ( + T5 206 )  ( + T7 235 ) ) ( <= ( + T7 274 )( + T5 195 ) ) )
(or ( <= ( + T5 230 )  ( + T7 274 ) ) ( <= ( + T7 352 )( + T5 206 ) ) )
(or ( <= ( + T5 4 ) T8 ) ( <= ( + T8 50 ) T5 ) )
(or ( <= ( + T5 89 )  ( + T8 50 ) ) ( <= ( + T8 64 )( + T5 4 ) ) )
(or ( <= ( + T5 117 )  ( + T8 64 ) ) ( <= ( + T8 93 )( + T5 89 ) ) )
(or ( <= ( + T5 195 )  ( + T8 93 ) ) ( <= ( + T8 148 )( + T5 117 ) ) )
(or ( <= ( + T5 206 )  ( + T8 148 ) ) ( <= ( + T8 161 )( + T5 195 ) ) )
(or ( <= ( + T5 230 )  ( + T8 161 ) ) ( <= ( + T8 173 )( + T5 206 ) ) )
(or ( <= ( + T6 60 ) T7 ) ( <= ( + T7 100 ) T6 ) )
(or ( <= ( + T6 116 )  ( + T7 100 ) ) ( <= ( + T7 175 )( + T6 60 ) ) )
(or ( <= ( + T6 202 )  ( + T7 175 ) ) ( <= ( + T7 176 )( + T6 116 ) ) )
(or ( <= ( + T6 229 )  ( + T7 176 ) ) ( <= ( + T7 235 )( + T6 202 ) ) )
(or ( <= ( + T6 233 )  ( + T7 235 ) ) ( <= ( + T7 274 )( + T6 229 ) ) )
(or ( <= ( + T6 249 )  ( + T7 274 ) ) ( <= ( + T7 352 )( + T6 233 ) ) )
(or ( <= ( + T6 60 ) T8 ) ( <= ( + T8 50 ) T6 ) )
(or ( <= ( + T6 116 )  ( + T8 50 ) ) ( <= ( + T8 64 )( + T6 60 ) ) )
(or ( <= ( + T6 202 )  ( + T8 64 ) ) ( <= ( + T8 93 )( + T6 116 ) ) )
(or ( <= ( + T6 229 )  ( + T8 93 ) ) ( <= ( + T8 148 )( + T6 202 ) ) )
(or ( <= ( + T6 233 )  ( + T8 148 ) ) ( <= ( + T8 161 )( + T6 229 ) ) )
(or ( <= ( + T6 249 )  ( + T8 161 ) ) ( <= ( + T8 173 )( + T6 233 ) ) )
(or ( <= ( + T7 100 ) T8 ) ( <= ( + T8 50 ) T7 ) )
(or ( <= ( + T7 175 )  ( + T8 50 ) ) ( <= ( + T8 64 )( + T7 100 ) ) )
(or ( <= ( + T7 176 )  ( + T8 64 ) ) ( <= ( + T8 93 )( + T7 175 ) ) )
(or ( <= ( + T7 235 )  ( + T8 93 ) ) ( <= ( + T8 148 )( + T7 176 ) ) )
(or ( <= ( + T7 274 )  ( + T8 148 ) ) ( <= ( + T8 161 )( + T7 235 ) ) )
(or ( <= ( + T7 352 )  ( + T8 161 ) ) ( <= ( + T8 173 )( + T7 274 ) ) )
( <= ( + T1 273 ) Z)
( <= ( + T2 349 ) Z)
( <= ( + T3 297 ) Z)
( <= ( + T4 342 ) Z)
( <= ( + T5 230 ) Z)
( <= ( + T6 249 ) Z)
( <= ( + T7 352 ) Z)
( <= ( + T8 173 ) Z)
( >= T1 0 )
( >= T2 0 )
( >= T3 0 )
( >= T4 0 )
( >= T5 0 )
( >= T6 0 )
( >= T7 0 )
( >= T8 0 )
) )
(minimize Z)
(check-sat)